1111100 AB
314 346 375 401 425 457 488 524 558 608 658 708 758 795 832 869 899 929 959 988 1013 1038 1063 1090 1123 1152 1192 1238
1111100 BA
374 406 438 470 502 534 566 598 630 680 730 780 830 867 904 941 971 1001 1031 1060 1090 1115 1140 1166 1194 1222 1262 1302
0000011 AB
320 441 536 602 637 672 804 873 943 1013 1107 1247
0000011 BA
377 501 600 666 701 737 870 939 1009 1079 1173 1306
